0 5 37 20 15 0
0 6 56 23 16 0
0 49 24 18 32 0
0 26 12 39 40 0
0 35 14 19 8 0
0 33 41 42 43 0
0 58 10 38 7 0
0 4 57 13 52 0
0 29 36 47 30 0
0 45 27 34 46 0
0 53 11 59 54 0
0 2 28 21 48 0
0 9 25 55 50 0
0 17 44 3 51 0
